CVEs/CVE-2016-6131.smt2
(set-logic QF_AUFBV )
(declare-fun arg00 () (Array (_ BitVec 32) (_ BitVec 8) ) )
(declare-fun model_version () (Array (_ BitVec 32) (_ BitVec 8) ) )
(assert (let ( (?B1 (select  arg00 (_ bv2 32) ) ) (?B2 (select  arg00 (_ bv4 32) ) ) (?B3 (select  arg00 (_ bv3 32) ) ) (?B4 (select  arg00 (_ bv5 32) ) ) (?B5 (select  arg00 (_ bv7 32) ) ) (?B6 (select  arg00 (_ bv6 32) ) ) (?B7 (select  arg00 (_ bv9 32) ) ) (?B8 (select  arg00 (_ bv8 32) ) ) (?B9 (select  arg00 (_ bv10 32) ) ) (?B10 (select  arg00 (_ bv12 32) ) ) (?B11 (select  arg00 (_ bv11 32) ) ) (?B12 (select  arg00 (_ bv33 32) ) ) (?B13 (select  arg00 (_ bv32 32) ) ) (?B14 (select  arg00 (_ bv35 32) ) ) (?B15 (select  arg00 (_ bv34 32) ) ) (?B16 (select  arg00 (_ bv36 32) ) ) (?B17 (select  arg00 (_ bv38 32) ) ) (?B18 (select  arg00 (_ bv13 32) ) ) (?B19 (select  arg00 (_ bv15 32) ) ) (?B20 (select  arg00 (_ bv14 32) ) ) (?B21 (select  arg00 (_ bv17 32) ) ) (?B22 (select  arg00 (_ bv16 32) ) ) (?B23 (select  arg00 (_ bv18 32) ) ) (?B24 (select  arg00 (_ bv20 32) ) ) (?B25 (select  arg00 (_ bv19 32) ) ) (?B26 (select  arg00 (_ bv22 32) ) ) (?B27 (select  arg00 (_ bv21 32) ) ) (?B28 (select  arg00 (_ bv23 32) ) ) (?B29 (select  arg00 (_ bv24 32) ) ) (?B30 (select  arg00 (_ bv28 32) ) ) (?B31 (select  arg00 (_ bv30 32) ) ) (?B32 (select  arg00 (_ bv31 32) ) ) ) (let ( (?B33 ((_ sign_extend 24)  ?B1 ) ) (?B34 ((_ sign_extend 24)  ?B3 ) ) (?B35 ((_ sign_extend 24)  ?B12 ) ) (?B36 ((_ sign_extend 24)  ?B17 ) ) (?B37 ((_ sign_extend 24)  ?B30 ) ) (?B38 ((_ sign_extend 24)  ?B31 ) ) (?B39 ((_ sign_extend 24)  ?B32 ) ) ) (let ( (?B43 (bvadd  (_ bv4294967248 32) ?B37 ) ) (?B42 (bvadd  (_ bv4294967248 32) ?B36 ) ) (?B41 (bvadd  (_ bv4294967248 32) ?B35 ) ) (?B44 (bvmul  (_ bv10 32) (bvadd  (_ bv4294967248 32) ?B38 ) ) ) (?B40 (bvmul  (_ bv10 32) (bvadd  (_ bv4294967248 32) ?B33 ) ) ) ) (let ( (?B46 ((_ sign_extend 32)  ?B43 ) ) (?B45 (bvadd  ?B40 ?B34 ) ) ) (let ( (?B47 (bvadd  (_ bv4294967248 32) ?B45 ) ) ) (let ( (?B48 ((_ sign_extend 32)  ?B47 ) ) ) (let ( (?B49 (bvadd  (_ bv94482442158900 64) ?B48 ) ) (?B50 (bvadd  (_ bv94482442294242 64) ?B48 ) ) ) (and  (and  (and  (and  (and  (and  (and  (and  (and  (and  (and  (and  (and  (and  (and  (and  (and  (and  (and  (and  (and  (and  (and  (and  (and  (and  (and  (and  (and  (and  (and  (and  (and  (and  (and  (and  (and  (and  (and  (and  (and  (and  (and  (and  (and  (and  (and  (and  (and  (and  (and  (and  (and  (and  (and  (and  (and  (and  (and  (and  (and  (and  (and  (and  (and  (and  (and  (and  (and  (and  (and  (and  (and  (and  (and  (and  (and  (and  (and  (and  (and  (and  (and  (and  (and  (and  (and  (and  (and  (and  (and  (and  (and  (and  (and  (and  (and  (and  (and  (and  (and  (and  (and  (and  (and  (and  (and  (and  (and  (and  (and  (and  (and  (and  (and  (and  (and  (and  (and  (and  (and  (and  (and  (and  (and  (and  (and  (bvsle  (_ bv32 32) ?B33 ) (bvsle  (_ bv32 32) ?B34 ) ) (bvsle  (_ bv32 32) ((_ sign_extend 24)  ?B2 ) ) ) (bvsle  (_ bv32 32) ((_ sign_extend 24)  ?B4 ) ) ) (bvsle  (_ bv32 32) ((_ sign_extend 24)  ?B6 ) ) ) (bvsle  (_ bv32 32) ((_ sign_extend 24)  ?B5 ) ) ) (bvsle  (_ bv32 32) ((_ sign_extend 24)  ?B8 ) ) ) (bvsle  (_ bv32 32) ((_ sign_extend 24)  ?B7 ) ) ) (bvsle  (_ bv32 32) ((_ sign_extend 24)  ?B9 ) ) ) (bvsle  (_ bv32 32) ((_ sign_extend 24)  ?B11 ) ) ) (bvsle  (_ bv32 32) ((_ sign_extend 24)  ?B10 ) ) ) (bvsle  (_ bv32 32) ((_ sign_extend 24)  ?B18 ) ) ) (bvsle  (_ bv32 32) ((_ sign_extend 24)  ?B20 ) ) ) (bvsle  (_ bv32 32) ((_ sign_extend 24)  ?B19 ) ) ) (bvsle  (_ bv32 32) ((_ sign_extend 24)  ?B22 ) ) ) (bvsle  (_ bv32 32) ((_ sign_extend 24)  ?B21 ) ) ) (bvsle  (_ bv32 32) ((_ sign_extend 24)  ?B23 ) ) ) (bvsle  (_ bv32 32) ((_ sign_extend 24)  ?B25 ) ) ) (bvsle  (_ bv32 32) ((_ sign_extend 24)  ?B24 ) ) ) (bvsle  (_ bv32 32) ((_ sign_extend 24)  ?B27 ) ) ) (bvsle  (_ bv32 32) ((_ sign_extend 24)  ?B26 ) ) ) (bvsle  (_ bv32 32) ((_ sign_extend 24)  ?B28 ) ) ) (bvsle  (_ bv32 32) ((_ sign_extend 24)  ?B29 ) ) ) (bvsle  (_ bv32 32) ?B37 ) ) (bvsle  (_ bv32 32) ?B38 ) ) (bvsle  (_ bv32 32) ?B39 ) ) (bvsle  (_ bv32 32) ((_ sign_extend 24)  ?B13 ) ) ) (bvsle  (_ bv32 32) ?B35 ) ) (bvsle  (_ bv32 32) ((_ sign_extend 24)  ?B15 ) ) ) (bvsle  (_ bv32 32) ((_ sign_extend 24)  ?B14 ) ) ) (bvsle  (_ bv32 32) ((_ sign_extend 24)  ?B16 ) ) ) (bvsle  (_ bv32 32) ?B36 ) ) (=  (_ bv1 32) (concat  (select  model_version (_ bv3 32) ) (concat  (select  model_version (_ bv2 32) ) (concat  (select  model_version (_ bv1 32) ) (select  model_version (_ bv0 32) ) ) ) ) ) ) (=  (_ bv95 8) (select  arg00 (_ bv0 32) ) ) ) (=  (_ bv95 8) (select  arg00 (_ bv1 32) ) ) ) (=  false (=  (_ bv118 8) ?B1 ) ) ) (=  false (=  (_ bv116 8) ?B1 ) ) ) (=  false (=  (_ bv0 8) ?B1 ) ) ) (=  false (=  (_ bv0 8) ?B3 ) ) ) (=  false (=  (_ bv0 8) ?B2 ) ) ) (=  false (=  (_ bv0 8) ?B4 ) ) ) (=  false (=  (_ bv0 8) ?B6 ) ) ) (=  false (=  (_ bv0 8) ?B5 ) ) ) (=  false (=  (_ bv0 8) ?B8 ) ) ) (=  false (=  (_ bv0 8) ?B7 ) ) ) (=  false (=  (_ bv0 8) ?B9 ) ) ) (=  false (=  (_ bv0 8) ?B11 ) ) ) (=  false (=  (_ bv0 8) ?B10 ) ) ) (=  false (=  (_ bv0 8) ?B18 ) ) ) (=  false (=  (_ bv0 8) ?B20 ) ) ) (=  false (=  (_ bv0 8) ?B19 ) ) ) (=  false (=  (_ bv0 8) ?B22 ) ) ) (=  false (=  (_ bv0 8) ?B21 ) ) ) (=  false (=  (_ bv0 8) ?B23 ) ) ) (=  false (=  (_ bv0 8) ?B25 ) ) ) (=  false (=  (_ bv0 8) ?B24 ) ) ) (=  false (=  (_ bv0 8) ?B27 ) ) ) (=  false (=  (_ bv0 8) ?B26 ) ) ) (=  false (=  (_ bv0 8) ?B28 ) ) ) (=  false (=  (_ bv0 8) ?B29 ) ) ) (=  false (=  (_ bv0 8) ?B30 ) ) ) (=  false (=  (_ bv0 8) ?B31 ) ) ) (=  false (=  (_ bv0 8) ?B32 ) ) ) (=  false (=  (_ bv0 8) ?B13 ) ) ) (=  false (=  (_ bv0 8) ?B12 ) ) ) (=  false (=  (_ bv0 8) ?B15 ) ) ) (=  false (=  (_ bv0 8) ?B14 ) ) ) (=  false (=  (_ bv0 8) ?B16 ) ) ) (=  false (=  (_ bv0 8) ?B17 ) ) ) (=  false (=  (_ bv105 8) ?B1 ) ) ) (=  false (=  (_ bv95 8) ?B1 ) ) ) (=  (_ bv0 32) (bvsrem  ?B40 (_ bv10 32) ) ) ) (=  false (bvslt  ?B47 (_ bv0 32) ) ) ) (=  false (=  (_ bv47 32) ?B45 ) ) ) (bvsle  ?B47 (_ bv35 32) ) ) (=  false (=  (_ bv95 8) ?B2 ) ) ) (=  false (=  (_ bv95 8) ?B4 ) ) ) (=  false (=  (_ bv95 8) ?B6 ) ) ) (=  false (=  (_ bv95 8) ?B5 ) ) ) (=  false (=  (_ bv95 8) ?B8 ) ) ) (=  false (=  (_ bv95 8) ?B7 ) ) ) (=  false (=  (_ bv95 8) ?B9 ) ) ) (=  false (=  (_ bv95 8) ?B11 ) ) ) (=  false (=  (_ bv95 8) ?B10 ) ) ) (=  false (=  (_ bv95 8) ?B18 ) ) ) (=  false (=  (_ bv95 8) ?B20 ) ) ) (=  false (=  (_ bv95 8) ?B19 ) ) ) (=  false (=  (_ bv95 8) ?B22 ) ) ) (=  false (=  (_ bv95 8) ?B21 ) ) ) (=  false (=  (_ bv95 8) ?B23 ) ) ) (=  false (=  (_ bv95 8) ?B25 ) ) ) (=  false (=  (_ bv95 8) ?B24 ) ) ) (=  false (=  (_ bv95 8) ?B27 ) ) ) (=  false (=  (_ bv95 8) ?B26 ) ) ) (=  false (=  (_ bv95 8) ?B28 ) ) ) (=  false (=  (_ bv95 8) ?B29 ) ) ) (=  (_ bv95 8) (select  arg00 (_ bv25 32) ) ) ) (=  (_ bv95 8) (select  arg00 (_ bv26 32) ) ) ) (=  false (=  (_ bv95 8) ?B30 ) ) ) (=  (_ bv95 8) (select  arg00 (_ bv29 32) ) ) ) (=  false (=  (_ bv95 8) ?B31 ) ) ) (=  false (=  (_ bv95 8) ?B32 ) ) ) (=  false (=  (_ bv95 8) ?B13 ) ) ) (=  false (=  (_ bv95 8) ?B12 ) ) ) (=  false (=  (_ bv95 8) ?B15 ) ) ) (=  false (=  (_ bv95 8) ?B14 ) ) ) (=  false (=  (_ bv95 8) ?B16 ) ) ) (=  false (=  (_ bv95 8) ?B17 ) ) ) (=  (_ bv83 8) (select  arg00 (_ bv27 32) ) ) ) (=  false (bvslt  ?B43 (_ bv0 32) ) ) ) (=  false (=  (_ bv47 8) ?B30 ) ) ) (=  (bvadd  (_ bv94482442158925 64) ?B46 ) ?B49 ) ) (bvult  (_ bv94482442158926 64) ?B49 ) ) (=  (_ bv0 32) (bvsrem  ?B44 (_ bv10 32) ) ) ) (=  (_ bv48 32) (bvadd  ?B44 ?B39 ) ) ) (bvult  (_ bv94482442158928 64) ?B49 ) ) (bvsle  (_ bv0 32) ?B41 ) ) (=  false (bvule  ?B49 (_ bv94482442158930 64) ) ) ) (=  (_ bv35 32) ((_ extract 31  0)  (bvadd  (_ bv2 64) ?B48 ) ) ) ) (=  (_ bv84 8) (select  arg00 (_ bv37 32) ) ) ) (=  false (bvslt  ?B42 (_ bv0 32) ) ) ) (=  false (bvsle  (_ bv1 32) ?B42 ) ) ) (=  false (=  (_ bv110 8) ?B1 ) ) ) (bvsle  ?B47 (_ bv33 32) ) ) (=  (bvadd  (_ bv94482442294267 64) ?B46 ) ?B50 ) ) (bvult  (_ bv94482442294268 64) ?B50 ) ) (bvult  (_ bv94482442294270 64) ?B50 ) ) (=  false (bvsle  (_ bv1 32) ?B41 ) ) ) ) ) ) ) ) ) ) )
(check-sat)
(exit)